(set-info :status unknown)
(declare-fun C () (_ BitVec 43))
(declare-fun %x () (_ BitVec 10))
(declare-fun |ana_WillNotOverflowSignedAdd(%x, trunc(C))| () (_ BitVec 1))
(declare-fun u_%sx () (_ BitVec 8))
(assert
 (let (($x9559 (= (bvadd ((_ sign_extend 1) %x) ((_ sign_extend 1) ((_ extract 9 0) C))) ((_ sign_extend 1) (bvadd %x ((_ extract 9 0) C))))))
 (let (($x12452 (= |ana_WillNotOverflowSignedAdd(%x, trunc(C))| (_ bv1 1))))
 (and (=> $x12452 $x9559) (= u_%sx (_ bv1 8)) $x12452 (= (bvand C (bvshl (_ bv8796093022207 43) (bvsub (_ bv10 43) (_ bv1 43)))) (_ bv0 43)) (not $x9559)))))
(check-sat)
